DIMENSION :24
NODE_COORD_SECTION
1 -21.756872130089988 10.130341061838493
2 22.079941743717413 -0.7314254291746778
3 -41.71723480602672 -68.64239446303584
4 71.6643161263726 -93.86048952383672
5 -77.24953867413089 42.971364687905265
6 -84.26501960191702 92.4619696604048
7 -18.157274268123686 -94.91507020698302
8 -51.56558385753043 -4.886698910047542
9 83.7947901521548 -5.641200835642394
10 14.9103345045678 -82.99695032788233
11 -50.85943231622478 -5.681951849405337
12 94.61863012784133 -83.04711353509651
13 -11.789710985011226 14.00163254021605
14 -10.734056691452395 64.17862576794505
15 83.19508904614293 77.64997425636852
16 -72.32170832260441 -99.43110565266768
17 -51.665456265403705 -88.07388182464699
18 97.73354138938004 -71.63086117253965
19 -4.7404716966270115 -27.79504198282727
20 94.59742018034584 46.54361871418004
21 25.249537954875308 -4.246047636265544
22 -65.14602527243161 96.00221904531719
23 46.13996136788313 -52.832095461478026
24 27.723198537092927 42.04285444016145
EOF
